2392
2391 2390 2389 2388 2387 2386 1 2 3 4 5 6 7 8 9 10 11 12 13 14 15 16 17 18 1296 1297 1298 1299 1300 1301 1302 1303 1304 1306 1305 1307 1308 2322 2321 2320 2317 2316 2315 2314 2313 2312 2311 2308 2309 2310 1312 1313 1311 1310 1309 2319 2318 2323 2324 2331 2332 2333 2334 2335 2336 2337 2338 2339 2340 2341 2342 2343 2344 2346 2345 2366 2365 2367 2368 2369 2370 2371 2374 2373 2372 2375 2376 2377 2378 2379 2380 2381 2382 2383 2384 2385 2328 2329 2330 2325 2326 2327 19 20 21 22 23 24 25 26 27 28 29 30 31 32 33 34 35 36 37 38 39 40 41 42 43 44 45 46 47 48 1268 1269 1270 1271 1272 1273 1274 1275 1276 1277 1278 1374 1373 1360 1361 1362 1363 1364 1365 1366 1367 1369 1368 1380 1379 1378 1377 1376 1375 1372 1371 1370 1359 1358 1357 1356 1355 1354 1353 1348 1347 1344 1345 1346 1349 1350 1351 1352 1286 1285 1287 1288 1289 1290 1291 1292 1293 1294 1295 1282 1283 1284 1279 1280 1281 49 50 51 52 53 54 55 56 57 58 59 60 61 62 63 64 65 66 67 68 69 70 71 72 73 74 75 76 77 78 142 143 144 145 146 147 148 149 150 152 151 153 154 1204 1203 1202 1199 1198 1197 1196 1195 1194 1193 1190 1191 1192 158 159 157 156 155 1201 1200 1205 1206 1213 1214 1215 1216 1217 1218 1219 1220 1221 1222 1223 1224 1225 1226 1228 1227 1248 1247 1249 1250 1251 1252 1253 1256 1255 1254 1257 1258 1259 1260 1261 1262 1263 1264 1265 1266 1267 1210 1211 1212 1207 1208 1209 79 80 81 82 83 84 85 86 87 88 89 90 91 92 93 94 95 96 97 98 99 100 101 102 103 104 105 106 107 113 114 115 116 117 118 119 120 121 122 123 124 220 219 206 207 208 209 210 211 212 213 215 214 226 225 224 223 222 221 218 217 216 205 204 203 202 201 200 199 194 193 190 191 192 195 196 197 198 132 131 133 134 135 136 137 138 139 140 141 128 129 130 125 126 127 112 111 110 109 108 227 228 229 230 231 233 234 232 235 236 237 238 239 240 241 242 243 244 245 248 247 252 251 250 249 246 253 255 256 257 258 259 260 261 262 263 264 265 266 267 268 269 270 271 272 273 274 275 276 277 279 280 278 281 282 283 284 285 286 287 288 289 292 291 290 306 307 308 309 310 311 312 314 315 316 317 318 319 320 321 322 323 326 324 325 385 386 387 383 382 381 384 379 380 378 377 376 375 374 373 372 371 370 369 368 367 366 364 365 363 362 361 360 359 358 357 354 353 355 356 348 347 346 345 344 342 343 341 340 339 338 337 336 335 332 333 334 331 329 330 328 327 313 305 304 303 302 301 300 397 396 398 399 400 299 298 295 296 297 294 293 395 393 394 392 391 390 389 388 971 970 969 968 967 966 976 975 974 973 972 977 978 979 980 907 908 909 910 911 912 913 914 915 917 916 918 919 957 956 955 952 953 954 920 921 922 923 924 925 927 926 928 929 931 932 933 934 935 936 937 938 939 940 942 941 945 944 943 473 474 475 476 477 478 479 480 481 462 461 460 459 458 457 456 455 454 453 452 451 450 449 448 447 446 445 444 443 442 441 440 439 438 425 426 427 428 429 430 431 432 434 433 435 436 437 424 423 422 421 959 958 950 951 949 948 946 947 930 791 792 793 794 795 796 797 798 799 800 801 814 813 812 811 810 809 808 807 805 806 782 781 780 779 778 777 776 775 772 771 773 768 769 770 774 767 765 764 763 762 761 760 759 758 785 784 783 787 786 788 789 790 804 803 802 815 816 817 818 819 820 821 826 827 828 829 830 831 832 833 834 836 835 856 855 857 858 859 860 854 853 851 850 849 848 847 846 845 844 843 842 840 841 837 838 839 766 852 1701 1700 1699 1698 1697 862 861 863 864 867 866 1685 1686 1687 1690 1691 1692 1693 1694 1695 1696 1710 1711 1712 1713 1714 1715 1716 1717 1718 1719 1723 1722 1721 1720 1724 1725 1727 1728 1729 1730 1731 1732 1733 1734 1707 1708 1709 1705 1706 1704 1703 1702 1689 1688 865 1684 1683 1676 1675 1674 1673 1672 1671 1670 1667 1668 1669 1635 1634 1633 1636 1630 1632 1631 1629 1628 1627 1626 1625 1624 1623 1622 1578 1577 1576 1575 1574 1573 1572 1571 1570 1569 1568 1567 1566 1565 1564 1563 1562 1561 1560 878 877 876 875 874 873 872 871 870 868 869 1682 1681 1680 1679 1678 1677 1665 1666 1664 1663 1661 1662 1641 1642 1640 1639 1637 1638 1643 1644 1646 1647 1648 1649 1650 1651 1652 1653 1654 1655 1657 1656 1660 1659 1658 1726 1645 2044 2045 2046 2047 2048 2049 2050 2051 2052 2053 2054 2067 2066 2065 2064 2063 2062 2061 2060 2058 2059 2035 2034 2033 2032 2031 2030 2029 2028 2025 2024 2026 2021 2022 2023 2027 2020 2018 2017 2016 2015 2014 2013 2012 2011 2038 2037 2036 2040 2039 2041 2042 2043 2057 2056 2055 2068 2069 2070 2071 2074 2075 2076 2077 2078 2079 2080 2081 2082 2083 2084 2085 2087 2086 2107 2106 2108 2109 2110 2111 2112 2115 2114 2113 2116 2117 2118 2119 2120 2121 2122 2123 2124 2125 2126 2127 2128 1606 1605 1604 1603 1602 1601 1600 1599 1598 1597 1596 1595 1594 1593 1592 1591 1590 1621 1620 1619 1618 1617 1616 1615 1614 1613 1612 1611 1610 1609 1608 1607 2072 2073 2105 2104 2102 2101 2100 2099 2098 2097 2096 2095 2094 2093 2091 2092 2088 2089 2090 2019 2103 1921 1922 1923 1924 1925 1926 1927 1928 1929 1930 1931 1932 1933 1934 1935 1936 1937 1938 1941 1940 1939 1909 1908 1907 1906 1905 1904 1903 1902 1901 1900 1899 1898 1897 1896 1895 1894 1893 1892 1891 1890 1886 1887 1888 1949 1948 1947 1946 1945 1944 1943 1942 1960 1961 1959 1958 1956 1955 1954 1953 1952 1950 1951 1957 1968 1969 1982 1983 1984 1981 1980 1979 1978 1977 1976 1973 1876 1877 1972 1971 1970 1879 1880 1878 1881 1882 1883 1884 1885 1889 1962 1963 1964 1965 1990 1989 1988 1987 1986 1985 1967 1966 1991 1992 1996 1994 1993 1995 1998 1997 1999 2001 2000 2003 2002 1848 1847 1849 1850 1851 1852 1853 1854 1855 1856 1857 1858 1859 1860 1861 1862 1863 1864 1865 1866 1867 1868 1869 1872 1871 1870 1813 1812 1814 1811 1810 1809 1816 1817 1818 1819 1820 1821 1822 1823 1824 1825 1826 1829 1827 1828 1830 1831 1832 1834 1833 1835 1836 1838 1837 1841 1842 1840 1839 1843 1844 1846 1845 1735 1736 1737 1738 1739 1740 1741 1742 1743 1744 1745 1746 1747 1748 1749 1751 1752 1750 1753 1754 1755 1756 1759 1760 1761 1762 1763 1765 1773 1772 1771 1770 1769 1768 1766 1767 1774 1775 1776 1777 1778 1783 1782 1779 1781 1780 1757 1758 1764 1800 1799 1798 1797 1796 1795 1792 1793 1794 1791 1790 1787 1788 1789 1786 1785 1784 651 650 649 648 647 646 645 644 643 642 641 640 639 638 637 633 634 635 696 695 694 693 692 691 690 689 688 685 687 686 655 656 654 653 652 657 658 659 660 661 662 663 664 665 666 667 670 668 669 671 672 673 674 675 676 677 678 679 680 681 682 683 684 707 708 706 705 703 702 701 700 699 697 698 704 715 716 729 730 731 728 727 726 725 724 723 720 623 624 719 718 717 626 627 625 628 629 630 631 632 636 709 710 711 712 737 736 735 734 733 732 714 713 738 739 743 741 740 742 745 744 746 748 747 750 749 595 594 596 597 598 599 600 601 602 603 604 605 606 607 608 609 610 611 612 613 614 615 616 619 618 617 560 559 561 558 557 556 563 564 565 566 567 568 569 570 571 572 573 576 574 575 577 578 579 581 580 582 583 585 584 588 589 587 586 590 591 593 592 482 483 484 485 486 487 488 489 490 491 492 493 494 495 496 498 499 497 500 501 502 503 506 507 508 509 510 512 520 519 518 517 516 515 513 514 521 522 523 524 525 530 529 526 528 527 504 505 511 547 546 545 544 543 542 539 540 541 538 537 534 535 536 533 532 531 548 550 549 551 552 553 554 555 562 620 621 622 721 722 753 754 755 756 757 752 751 472 469 468 470 465 466 467 471 464 463 417 416 415 414 413 412 411 410 409 408 407 406 964 965 963 419 420 418 960 961 962 981 982 983 984 985 986 987 988 989 990 991 992 906 905 904 903 902 901 900 899 898 897 896 895 894 893 995 994 993 996 997 998 999 1000 1001 1002 1003 1004 1005 1006 1007 1008 1009 1010 879 880 881 882 883 884 885 886 887 888 889 823 822 825 824 890 891 892 1011 1012 1013 1014 1015 1016 1019 1018 1017 1076 1077 1075 1078 1079 1080 1073 1072 1071 1070 1069 1068 1067 1066 1065 1064 1063 1060 1062 1061 1030 1031 1029 1028 1027 1026 1025 1024 1023 1022 1021 1020 1453 1452 1449 1450 1451 1454 1455 1456 1457 1458 1445 1444 1443 1442 1441 1440 1439 1438 1437 1462 1463 1464 1465 1466 1468 1470 1469 1471 1472 1473 1474 1475 1476 1477 1480 1478 1479 1539 1540 1541 1537 1536 1535 1538 1533 1534 1532 1531 1530 1529 1528 1527 1526 1525 1524 1523 1522 1521 1520 1518 1519 1517 1516 1515 1514 1513 1512 1511 1508 1507 1509 1510 1502 1501 1500 1499 1498 1496 1497 1495 1494 1493 1492 1491 1490 1489 1486 1487 1488 1485 1483 1484 1482 1481 1467 1461 1460 1459 1446 1447 1448 1551 1550 1552 1553 1554 1546 1545 1544 1543 1542 1547 1548 1549 1555 1556 1557 1558 1559 1074 1081 1082 1083 1084 1085 1086 1088 1087 1094 1093 1092 1091 1090 1089 1113 1112 1111 1106 1105 1104 1103 1102 1101 1100 1099 1098 1097 1096 1095 1119 1118 1117 1116 1115 1126 1124 1123 1122 1121 1120 1114 1132 1131 1129 1130 1134 1133 1109 1108 1110 1107 1136 1135 1140 1138 1137 1139 1142 1141 1143 1145 1144 1147 1146 1148 1149 1150 1151 1152 1153 1154 1156 1155 1157 1158 1159 1160 1161 1162 1163 1164 1165 1166 1170 1169 1168 1167 1171 1172 1173 1175 1174 1176 1177 1178 1179 1180 1181 1182 1183 1184 1185 1186 1187 1188 1189 169 167 166 165 163 164 162 160 161 185 186 184 168 183 182 181 180 179 178 177 176 175 174 173 172 171 170 187 189 188 254 351 352 350 349 1128 1127 1125 1056 1055 1054 1053 1051 1052 1048 1047 1049 1050 1046 1045 1043 1044 1237 1236 1235 1234 1232 1233 1229 1230 1231 1244 1245 1243 1242 1241 1240 1239 1238 1386 1387 1388 1389 1390 1391 1392 1393 1394 1395 1396 1397 1398 1399 1400 1401 1405 1404 1403 1402 1406 1407 1409 1410 1411 1412 1413 1414 1415 1416 1417 1418 1419 1420 1421 1422 1423 1424 1425 1426 1427 1428 1429 1430 1431 1433 1434 1432 1435 1436 1036 1035 1034 1033 1032 1059 1058 1057 1037 1038 1039 1040 1041 1042 1385 1384 1383 1382 1381 1246 1342 1343 1341 1340 1338 1339 1318 1319 1317 1316 1314 1315 1320 1321 1323 1324 1325 1326 1327 1328 1329 1330 1331 1332 1334 1333 1337 1336 1335 1408 1322 2306 2307 2305 2304 2302 2301 2303 2299 2300 2298 2297 2296 2295 2294 2293 2292 2291 2290 2287 2286 2288 2283 2284 2285 2289 2282 2280 2279 2278 2277 2276 2275 2274 2273 2269 2270 2271 2272 2268 2267 2266 2265 2264 2263 2262 2261 2260 2259 2258 2256 2255 2257 2254 2253 2252 2251 2227 2226 2228 2225 2224 2223 2230 2229 2250 2249 2247 2248 2246 2245 2244 2242 2234 2233 2235 2236 2237 2238 2239 2240 2241 2186 2185 2184 2183 2182 2181 2178 2180 2179 2148 2149 2147 2146 2145 2144 2143 2142 2141 2140 2139 2138 2137 2136 2135 2194 2195 2193 2196 2197 2198 2191 2190 2189 2188 2187 2243 2174 2173 2172 2171 2169 2170 2166 2165 2167 2168 2164 2163 2161 2162 2355 2354 2353 2352 2350 2351 2347 2348 2349 2281 2362 2363 2361 2360 2359 2358 2357 2356 2160 2159 2156 2157 2158 2155 2154 2153 2152 2151 2150 2177 2176 2175 2232 2231 2207 2208 2209 2210 2211 2212 2215 2214 2213 2216 2217 2220 2219 2218 2221 2222 2205 2204 2206 2203 2202 2201 2200 2199 2192 2134 2133 2132 2131 2130 2129 1589 1588 1587 1586 1585 1584 1583 1582 1581 1580 1579 2005 2004 2006 2007 2008 2009 2010 1918 1917 1916 1919 1920 1915 1914 1913 1912 1911 1910 1975 1974 1875 1873 1874 1815 1808 1807 1806 1805 1804 1803 1801 1802 405 404 403 402 401 1503 1504 1506 1505 2364 0 
